C-OOH                                 
1.0
       12.8345003128         0.0000000000         0.0000000000
        0.0000000000        12.2533998489         0.0000000000
        0.0000000000         0.0000000000        15.0000000000
    C    O    H
   59    3    2
Direct
     0.108438998         0.001207000         0.202561006
     0.275436014         0.101341002         0.205120996
     0.997054994         0.001464000         0.198247001
     0.164257005         0.101305000         0.204154998
     0.441745996         0.001727000         0.199974999
     0.607773006         0.102880001         0.194806993
     0.330982000         0.001407000         0.204294994
     0.496859998         0.103258997         0.197732002
     0.774200022         0.001821000         0.191967994
     0.941331983         0.101542003         0.196034998
     0.663115978         0.002250000         0.193549007
     0.830012023         0.102018997         0.192340001
     0.108387999         0.201148003         0.203255996
     0.274286985         0.301155001         0.211364999
     0.997357011         0.201248005         0.198724002
     0.163589999         0.301194996         0.207417995
     0.441751003         0.204591006         0.202383995
     0.608241022         0.305085003         0.186290994
     0.330861002         0.202104002         0.206792995
     0.497274995         0.307209998         0.203256994
     0.774711013         0.202307001         0.189642996
     0.942223012         0.301335990         0.196217000
     0.662980974         0.203989998         0.190139994
     0.831528008         0.301593989         0.190358996
     0.108066998         0.401410997         0.206518993
     0.272753000         0.502288997         0.223534003
     0.997775018         0.401432008         0.198887005
     0.162643000         0.501730978         0.212270007
     0.437519997         0.402631015         0.225070998
     0.620034993         0.502353013         0.147695005
     0.328597009         0.401028007         0.221954003
     0.777336001         0.401647002         0.182576999
     0.942719996         0.501649976         0.194609001
     0.667424977         0.402289987         0.169581994
     0.832615972         0.501658976         0.185333997
     0.107750997         0.601846993         0.207818002
     0.273869991         0.701389015         0.217834994
     0.997255981         0.601881027         0.199591994
     0.163175002         0.701753020         0.209674001
     0.438336998         0.603006005         0.254052013
     0.606806993         0.698727012         0.187779993
     0.325922996         0.601468980         0.228768006
     0.499175012         0.697615981         0.209464997
     0.776983023         0.601507008         0.184233993
     0.941675007         0.701816022         0.196594000
     0.666918993         0.600754023         0.171460003
     0.830985010         0.701712012         0.190988004
     0.107969001         0.801719010         0.204522997
     0.275757015         0.900654972         0.208263993
     0.997053027         0.801889002         0.198933005
     0.164119005         0.901301980         0.205659002
     0.442876995         0.798533022         0.208198994
     0.607707977         0.901073992         0.193994999
     0.331090003         0.800945997         0.214119002
     0.497024000         0.900407016         0.198836997
     0.774173021         0.801258981         0.189089999
     0.941139996         0.901612997         0.195956007
     0.662621975         0.800539970         0.188821003
     0.829724014         0.901539028         0.191931993
     0.486945987         0.496614993         0.250037014
     0.431180000         0.627642989         0.348982006
     0.536638021         0.638481021         0.386835009
     0.544274986         0.503197014         0.115235999
     0.542531013         0.718330026         0.389306992
