C                                     
1.0
       12.8345098495         0.0000000000         0.0000000000
        0.0000000000        12.2534389496         0.0000000000
        0.0000000000         0.0000000000        15.0000000000
    C    O    H
   59    1    1
Direct
     0.110982999         0.999978006         0.203185007
     0.277947992         0.100051001         0.204044998
     0.999549985         0.999983013         0.201381996
     0.166813999         0.099840000         0.204245001
     0.444436014         0.999975979         0.199226007
     0.610422015         0.100966997         0.197081998
     0.333373010         0.999978006         0.202075005
     0.499549001         0.101453997         0.198225006
     0.776924014         0.999980986         0.197025001
     0.943746984         0.099822998         0.200050995
     0.665589988         0.999981999         0.197481006
     0.832475007         0.100069001         0.197046995
     0.110629998         0.199585006         0.204982996
     0.276605010         0.299560994         0.210391998
     0.999764025         0.199573994         0.202223003
     0.165776998         0.299594015         0.208771005
     0.444463015         0.203135997         0.201887995
     0.611510992         0.303333014         0.186534002
     0.333485991         0.200736001         0.205902994
     0.500095010         0.305884987         0.202162996
     0.777306020         0.200444996         0.193480998
     0.944633007         0.299645990         0.200357005
     0.665741980         0.202147007         0.192481995
     0.833980978         0.299791992         0.194087997
     0.110264003         0.399506986         0.209801003
     0.274670988         0.499976009         0.221044004
     0.000089000         0.399634987         0.203205004
     0.165336996         0.499976009         0.214430004
     0.439873010         0.401241004         0.220597997
     0.625064015         0.499985993         0.144021004
     0.330716997         0.399735987         0.218612000
     0.780342996         0.399890989         0.184718996
     0.945227027         0.499978989         0.198570997
     0.670922995         0.400516003         0.169318005
     0.835749984         0.499983013         0.187502995
     0.110266000         0.600448012         0.209806994
     0.276607007         0.700398028         0.210385993
     0.000090000         0.600323021         0.203214005
     0.165773004         0.700360000         0.208776996
     0.439877003         0.598716974         0.220594004
     0.611513972         0.696631014         0.186528996
     0.330715001         0.600219011         0.218606994
     0.500099003         0.694072008         0.202158004
     0.780344009         0.600068986         0.184717000
     0.944633007         0.700311005         0.200367004
     0.670926988         0.599452972         0.169312000
     0.833977997         0.700167000         0.194093004
     0.110627003         0.800373971         0.204990000
     0.277945995         0.899904013         0.204041004
     0.999763012         0.800384998         0.202230006
     0.166810006         0.900114000         0.204245999
     0.444465995         0.796823978         0.201879993
     0.610424995         0.898995996         0.197079003
     0.333483011         0.799215019         0.205895007
     0.499552011         0.898497999         0.198221996
     0.777305007         0.799513996         0.193481997
     0.943745971         0.900135994         0.200051993
     0.665741026         0.797819018         0.192478001
     0.832475007         0.899895012         0.197045997
     0.487066001         0.499976993         0.243318006
     0.550520003         0.499992996         0.109585002
