C-OH                                  
1.0
       12.8345003128         0.0000000000         0.0000000000
        0.0000000000        12.2533998489         0.0000000000
        0.0000000000         0.0000000000        15.0000000000
    C    O    H
   59    2    2
Direct
     0.110326000         0.999121010         0.202985004
     0.277336001         0.099241003         0.204022005
     0.998921990         0.999370992         0.199401006
     0.166150004         0.099244997         0.203575000
     0.443628997         0.999548972         0.199370995
     0.609713972         0.100730002         0.194472998
     0.332832009         0.999242008         0.203676999
     0.498793989         0.101034001         0.196813002
     0.776100993         0.999737024         0.193278000
     0.943265975         0.099491999         0.196749002
     0.665027022         0.000109000         0.194138005
     0.831964016         0.099922001         0.193193004
     0.110293001         0.199119002         0.202746004
     0.276255995         0.299149007         0.209964007
     0.999239981         0.199232996         0.198888004
     0.165521994         0.299167007         0.206651002
     0.443681002         0.202362001         0.200976998
     0.610261023         0.302881986         0.185479999
     0.332771003         0.200017005         0.205271006
     0.499235004         0.304892004         0.201994002
     0.776712000         0.200185001         0.189862996
     0.944104016         0.299311996         0.196542993
     0.664997995         0.201815993         0.189809993
     0.833419979         0.299537987         0.190596998
     0.110010996         0.399399996         0.206441998
     0.274809986         0.500288010         0.223646000
     0.999668002         0.399379998         0.199259996
     0.164563000         0.499700993         0.212643996
     0.439536989         0.400337011         0.223881006
     0.622134984         0.500289977         0.147052005
     0.330610007         0.398975998         0.220789000
     0.779251993         0.399596006         0.182650998
     0.944582999         0.499601990         0.195418000
     0.669448972         0.400189996         0.169017002
     0.834497988         0.499590993         0.185912997
     0.109577999         0.599738002         0.209103003
     0.275777996         0.699109972         0.219269007
     0.999059975         0.599792004         0.201046005
     0.165006995         0.699612021         0.211310998
     0.440371007         0.601463020         0.256482989
     0.608687997         0.696524978         0.188281998
     0.327885002         0.599268973         0.230352998
     0.500961006         0.695697010         0.209779993
     0.778851986         0.599412978         0.184908003
     0.943455994         0.699716985         0.198504001
     0.668855011         0.598592997         0.171478003
     0.832785010         0.699631989         0.192440003
     0.109811001         0.799620986         0.206180006
     0.277606994         0.898510993         0.208407000
     0.998851001         0.799791992         0.201055005
     0.165975004         0.899230003         0.206448004
     0.444691986         0.796597004         0.208247006
     0.609601021         0.898921013         0.194520995
     0.332964003         0.798785985         0.214589000
     0.498892009         0.898294985         0.198735997
     0.776023984         0.799199998         0.190530002
     0.942963004         0.899519980         0.197906002
     0.664524019         0.798416018         0.189656004
     0.831561983         0.899486005         0.193780005
     0.488974005         0.493660986         0.249965996
     0.442290992         0.625536978         0.349642009
     0.546293020         0.501312971         0.114730000
     0.514050007         0.644393981         0.365404993
