C-O                                   
1.0
       12.8345003128         0.0000000000         0.0000000000
        0.0000000000        12.2533998489         0.0000000000
        0.0000000000         0.0000000000        15.0000000000
    C    O    H
   59    2    1
Direct
     0.110715002         0.999502003         0.192006007
     0.277759999         0.099953003         0.192852005
     0.999710023         0.999518991         0.189453006
     0.166392997         0.099712998         0.193112999
     0.443854004         0.999378026         0.186866000
     0.610579014         0.100111999         0.183240995
     0.333424985         0.999352992         0.191092998
     0.499642015         0.099692002         0.184580997
     0.777118981         0.999714971         0.184200004
     0.944139004         0.099868998         0.187702999
     0.666373014         0.999765992         0.184200004
     0.832975984         0.100048997         0.184205994
     0.110990003         0.199644998         0.195065007
     0.277218997         0.299751997         0.207066998
     0.999899030         0.199570999         0.191732004
     0.166470006         0.299506992         0.202599004
     0.444319010         0.199566007         0.192287996
     0.610194027         0.300716996         0.185524002
     0.333041012         0.199364007         0.197430000
     0.500301003         0.298606008         0.199757993
     0.777683020         0.200163007         0.183466002
     0.944688976         0.299809992         0.193210006
     0.666022003         0.200619996         0.182510003
     0.833949983         0.299706995         0.188663006
     0.111463003         0.400002986         0.205841005
     0.278108001         0.500149012         0.230270997
     0.000674000         0.399865001         0.199062005
     0.167232007         0.499991000         0.214664996
     0.443295985         0.390792996         0.238128006
     0.617881000         0.501695991         0.168188006
     0.331714988         0.397323996         0.225484997
     0.778415978         0.399902999         0.187866002
     0.944851995         0.499794990         0.198570997
     0.668292999         0.400916994         0.178807005
     0.834061980         0.499875009         0.193116993
     0.111014001         0.599524021         0.209233001
     0.275990993         0.699860990         0.218063995
     0.000121000         0.599605978         0.202240005
     0.165912002         0.699802995         0.207855001
     0.434558004         0.629266024         0.278503001
     0.609097004         0.698974013         0.199199006
     0.329091012         0.602297008         0.239850000
     0.501685977         0.701963007         0.218688995
     0.778509974         0.599547029         0.194959998
     0.944217980         0.699756980         0.198109001
     0.667557001         0.599072993         0.188510999
     0.833558023         0.699716985         0.195923001
     0.110623002         0.799857020         0.198926002
     0.277963012         0.899002016         0.197808996
     0.999678016         0.799975991         0.195338994
     0.166308001         0.899388015         0.196133003
     0.444959015         0.800347984         0.204523996
     0.610617995         0.899540007         0.188204005
     0.333104998         0.800366998         0.208597004
     0.499675989         0.899366021         0.190274000
     0.776925981         0.799489021         0.190213993
     0.943940997         0.899510026         0.190118000
     0.665461004         0.799333990         0.190908998
     0.832565010         0.899322987         0.187471002
     0.490523994         0.461627990         0.283380985
     0.446283013         0.643235981         0.359214008
     0.538425028         0.505087972         0.143392995
