CONTCAR1                                
   1.00000000000000     
    12.8345000000000002    0.0000000000000000    0.0000000000000000
     0.0000000000000000   12.2533999999999992    0.0000000000000000
     0.0000000000000000    0.0000000000000000   15.0000000000000000
   H    C    O 
     3    59     3
Selective dynamics
Direct
  0.5511936816008799  0.5015448624114672  0.1111216598805396   T   T   T
  0.5243651074867669  0.5430743600784332  0.3771641549099175   T   T   T
  0.3931996091248880  0.6725107860539330  0.4171266943692255   T   T   T
  0.1113891588765358  0.0017193401107990  0.2054272328552864   T   T   T
  0.2783624918733308  0.1018056577355281  0.2064566244480865   T   T   T
  0.0000711781262693  0.0017156722004359  0.2031592999742680   T   T   T
  0.1672971014866514  0.1016121454129169  0.2067168671406630   T   T   T
  0.4448018526639225  0.0017555656314588  0.2007562096318221   T   T   T
  0.6108195054759576  0.1026937911518671  0.1980518833832628   T   T   T
  0.3338479249960388  0.0017229592707679  0.2040969978606814   T   T   T
  0.5000052361853137  0.1032472675624872  0.1996023740665352   T   T   T
  0.7773412110868412  0.0017106208781602  0.1978221857692573   T   T   T
  0.9442123976909268  0.1015643680878024  0.2015369976146651   T   T   T
  0.6660246398357365  0.0017199693888602  0.1982016813778788   T   T   T
  0.8330160765275162  0.1017728494974500  0.1980232426165584   T   T   T
  0.1110352964171143  0.2013299833463884  0.2074483776892266   T   T   T
  0.2769384651844163  0.3012574336173059  0.2127679855973523   T   T   T
  0.0002516192095923  0.2012934293457109  0.2041906254271286   T   T   T
  0.1661931449571238  0.3013589676284976  0.2113164828858893   T   T   T
  0.4448221159382401  0.2048535461100315  0.2035779568359694   T   T   T
  0.6118950437647255  0.3050014987789578  0.1879949220732950   T   T   T
  0.3339533764575053  0.2024724187174105  0.2081415170328451   T   T   T
  0.5005549207976344  0.3076036903791057  0.2036970663817032   T   T   T
  0.7777812370017224  0.2021608202837253  0.1946403689633002   T   T   T
  0.9450384234868696  0.3013461458416223  0.2023566989973932   T   T   T
  0.6662269311569037  0.2038311052257833  0.1935824462806618   T   T   T
  0.8345001452311004  0.3014648570961213  0.1958244501495620   T   T   T
  0.1106336872501150  0.4012583394656895  0.2122999237766891   T   T   T
  0.2750703468482839  0.5017149243165731  0.2228830827477209   T   T   T
  0.0005236885052951  0.4013489714486748  0.2055108130632298   T   T   T
  0.1657770513138790  0.5017173585261109  0.2167250087356500   T   T   T
  0.4401962643255818  0.4027267180918767  0.2222050894037404   T   T   T
  0.6256214847856368  0.5016542745860211  0.1457638962930245   T   T   T
  0.3311356149520179  0.4014633485360464  0.2206667283945497   T   T   T
  0.7807830058448026  0.4016325584498214  0.1867262064325750   T   T   T
  0.9456549943775947  0.5016923122883929  0.2008763651076558   T   T   T
  0.6714479098287678  0.4022501724611847  0.1711375452939597   T   T   T
  0.8362041903027125  0.5017088502681188  0.1896885946151312   T   T   T
  0.1106135974848468  0.6021502364987581  0.2120677660264783   T   T   T
  0.2768684181564009  0.7021056284881984  0.2116380774005154   T   T   T
  0.0004905030886785  0.6020423089530245  0.2055626110375568   T   T   T
  0.1661210126320461  0.7020482684283446  0.2108473835744771   T   T   T
  0.4400517236722217  0.6007308741636597  0.2206630582895575   T   T   T
  0.6119202111907878  0.6984222771002379  0.1874673096843898   T   T   T
  0.3310399351554493  0.6019024959841388  0.2193181011680917   T   T   T
  0.5004909532777118  0.6958299248810410  0.2025326782485079   T   T   T
  0.7807662111962949  0.6017705236790151  0.1866699963502696   T   T   T
  0.9449790925428386  0.7020429141049759  0.2025329350545264   T   T   T
  0.6714826283972808  0.6011654974894937  0.1708591019741779   T   T   T
  0.8344363088680498  0.7019099193540856  0.1959686794984540   T   T   T
  0.1109919498597980  0.8020916802743275  0.2072303124273196   T   T   T
  0.2783333123719303  0.9016397955734399  0.2060672793196554   T   T   T
  0.0001924993800614  0.8021167849037275  0.2042876453615071   T   T   T
  0.1672705293371171  0.9018119362556338  0.2064614596167632   T   T   T
  0.4448212511451734  0.7986281388783658  0.2027350864268485   T   T   T
  0.6108049555412001  0.9007702039224058  0.1978331881967160   T   T   T
  0.3339223047995781  0.8009430890498322  0.2072606410775358   T   T   T
  0.4999988569939472  0.9002816460479797  0.1992746906668422   T   T   T
  0.7777222569518704  0.8012243633094753  0.1947245979664893   T   T   T
  0.9441812020305038  0.9018689178159037  0.2016095727518253   T   T   T
  0.6661932770534458  0.7995937157805004  0.1933679541932132   T   T   T
  0.8329771999178184  0.9016290770001359  0.1981391350929387   T   T   T
  0.4872536820456834  0.5020429500774904  0.2452414910585877   T   T   T
  0.4009271395124286  0.5954189456121941  0.4333905995537149   T   T   T
  0.5148888564216225  0.5852729460920829  0.4324393899061759   T   T   T
 
  0.00000000E+00  0.00000000E+00  0.00000000E+00
  0.00000000E+00  0.00000000E+00  0.00000000E+00
  0.00000000E+00  0.00000000E+00  0.00000000E+00
  0.00000000E+00  0.00000000E+00  0.00000000E+00
  0.00000000E+00  0.00000000E+00  0.00000000E+00
  0.00000000E+00  0.00000000E+00  0.00000000E+00
  0.00000000E+00  0.00000000E+00  0.00000000E+00
  0.00000000E+00  0.00000000E+00  0.00000000E+00
  0.00000000E+00  0.00000000E+00  0.00000000E+00
  0.00000000E+00  0.00000000E+00  0.00000000E+00
  0.00000000E+00  0.00000000E+00  0.00000000E+00
  0.00000000E+00  0.00000000E+00  0.00000000E+00
  0.00000000E+00  0.00000000E+00  0.00000000E+00
  0.00000000E+00  0.00000000E+00  0.00000000E+00
  0.00000000E+00  0.00000000E+00  0.00000000E+00
  0.00000000E+00  0.00000000E+00  0.00000000E+00
  0.00000000E+00  0.00000000E+00  0.00000000E+00
  0.00000000E+00  0.00000000E+00  0.00000000E+00
  0.00000000E+00  0.00000000E+00  0.00000000E+00
  0.00000000E+00  0.00000000E+00  0.00000000E+00
  0.00000000E+00  0.00000000E+00  0.00000000E+00
  0.00000000E+00  0.00000000E+00  0.00000000E+00
  0.00000000E+00  0.00000000E+00  0.00000000E+00
  0.00000000E+00  0.00000000E+00  0.00000000E+00
  0.00000000E+00  0.00000000E+00  0.00000000E+00
  0.00000000E+00  0.00000000E+00  0.00000000E+00
  0.00000000E+00  0.00000000E+00  0.00000000E+00
  0.00000000E+00  0.00000000E+00  0.00000000E+00
  0.00000000E+00  0.00000000E+00  0.00000000E+00
  0.00000000E+00  0.00000000E+00  0.00000000E+00
  0.00000000E+00  0.00000000E+00  0.00000000E+00
  0.00000000E+00  0.00000000E+00  0.00000000E+00
  0.00000000E+00  0.00000000E+00  0.00000000E+00
  0.00000000E+00  0.00000000E+00  0.00000000E+00
  0.00000000E+00  0.00000000E+00  0.00000000E+00
  0.00000000E+00  0.00000000E+00  0.00000000E+00
  0.00000000E+00  0.00000000E+00  0.00000000E+00
  0.00000000E+00  0.00000000E+00  0.00000000E+00
  0.00000000E+00  0.00000000E+00  0.00000000E+00
  0.00000000E+00  0.00000000E+00  0.00000000E+00
  0.00000000E+00  0.00000000E+00  0.00000000E+00
  0.00000000E+00  0.00000000E+00  0.00000000E+00
  0.00000000E+00  0.00000000E+00  0.00000000E+00
  0.00000000E+00  0.00000000E+00  0.00000000E+00
  0.00000000E+00  0.00000000E+00  0.00000000E+00
  0.00000000E+00  0.00000000E+00  0.00000000E+00
  0.00000000E+00  0.00000000E+00  0.00000000E+00
  0.00000000E+00  0.00000000E+00  0.00000000E+00
  0.00000000E+00  0.00000000E+00  0.00000000E+00
  0.00000000E+00  0.00000000E+00  0.00000000E+00
  0.00000000E+00  0.00000000E+00  0.00000000E+00
  0.00000000E+00  0.00000000E+00  0.00000000E+00
  0.00000000E+00  0.00000000E+00  0.00000000E+00
  0.00000000E+00  0.00000000E+00  0.00000000E+00
  0.00000000E+00  0.00000000E+00  0.00000000E+00
  0.00000000E+00  0.00000000E+00  0.00000000E+00
  0.00000000E+00  0.00000000E+00  0.00000000E+00
  0.00000000E+00  0.00000000E+00  0.00000000E+00
  0.00000000E+00  0.00000000E+00  0.00000000E+00
  0.00000000E+00  0.00000000E+00  0.00000000E+00
  0.00000000E+00  0.00000000E+00  0.00000000E+00
  0.00000000E+00  0.00000000E+00  0.00000000E+00
  0.00000000E+00  0.00000000E+00  0.00000000E+00
  0.00000000E+00  0.00000000E+00  0.00000000E+00
  0.00000000E+00  0.00000000E+00  0.00000000E+00
